1670.0 21958.0 
1665.0 21989.0 
1630.0 23365.0 
1648.0 23117.0 
1660.0 22164.0 
1662.0 22143.0 
1629.0 23458.0 
1630.0 23365.0 
1806.0 21431.0 
1675.0 21811.0 
1655.0 22201.0 
1679.0 21706.0 
1684.0 21518.0 
1717.0 21483.0 
1786.0 21435.0 
1786.0 21435.0 
1762.0 21437.0 
1632.0 23183.0 
1806.0 21431.0 
1664.0 22036.0 
1665.0 21989.0 
1633.0 23130.0 
1684.0 21518.0 
1680.0 21693.0 
1651.0 22252.0 
